Route #1: 26 10 25
Route #2: 19 4 46 30
Route #3: 29 27 31 34 38 13 24
Route #4: 20 8 3 16 2
Route #5: 9 43 49 7 50 35 28 18 23
Route #6: 14 42 15 32 1
Route #7: 17 45 12 47 21 39
Route #8: 40 44 37 6 33
Route #9: 48 36 11 5 41 22
Cost 7408510.000000